c colouring generated by benchmark framework
p edge 500 12458
v 1 7
v 2 5
v 3 1
v 4 8
v 5 8
v 6 16
v 7 4
v 8 7
v 9 4
v 10 1
v 11 14
v 12 14
v 13 7
v 14 2
v 15 11
v 16 5
v 17 8
v 18 14
v 19 13
v 20 15
v 21 15
v 22 4
v 23 6
v 24 8
v 25 7
v 26 17
v 27 0
v 28 6
v 29 4
v 30 6
v 31 12
v 32 10
v 33 13
v 34 2
v 35 8
v 36 15
v 37 17
v 38 17
v 39 2
v 40 0
v 41 1
v 42 5
v 43 11
v 44 7
v 45 3
v 46 4
v 47 0
v 48 3
v 49 10
v 50 3
v 51 7
v 52 1
v 53 7
v 54 2
v 55 1
v 56 3
v 57 1
v 58 5
v 59 5
v 60 3
v 61 4
v 62 10
v 63 2
v 64 11
v 65 6
v 66 3
v 67 10
v 68 4
v 69 2
v 70 14
v 71 0
v 72 15
v 73 5
v 74 4
v 75 0
v 76 7
v 77 16
v 78 3
v 79 12
v 80 15
v 81 0
v 82 2
v 83 1
v 84 2
v 85 11
v 86 10
v 87 0
v 88 4
v 89 9
v 90 2
v 91 8
v 92 12
v 93 17
v 94 2
v 95 16
v 96 11
v 97 5
v 98 4
v 99 6
v 100 17
v 101 3
v 102 0
v 103 12
v 104 14
v 105 9
v 106 10
v 107 12
v 108 6
v 109 6
v 110 9
v 111 10
v 112 5
v 113 8
v 114 7
v 115 14
v 116 6
v 117 13
v 118 15
v 119 3
v 120 8
v 121 0
v 122 6
v 123 9
v 124 3
v 125 14
v 126 11
v 127 7
v 128 16
v 129 4
v 130 1
v 131 1
v 132 13
v 133 12
v 134 3
v 135 2
v 136 8
v 137 3
v 138 16
v 139 0
v 140 15
v 141 0
v 142 1
v 143 12
v 144 14
v 145 2
v 146 9
v 147 12
v 148 6
v 149 11
v 150 6
v 151 10
v 152 16
v 153 12
v 154 6
v 155 2
v 156 8
v 157 5
v 158 11
v 159 9
v 160 13
v 161 1
v 162 15
v 163 9
v 164 17
v 165 16
v 166 6
v 167 4
v 168 1
v 169 4
v 170 15
v 171 11
v 172 10
v 173 12
v 174 13
v 175 0
v 176 14
v 177 7
v 178 8
v 179 6
v 180 9
v 181 10
v 182 2
v 183 5
v 184 2
v 185 14
v 186 11
v 187 3
v 188 3
v 189 7
v 190 5
v 191 15
v 192 9
v 193 17
v 194 4
v 195 12
v 196 17
v 197 14
v 198 6
v 199 7
v 200 11
v 201 2
v 202 8
v 203 13
v 204 0
v 205 10
v 206 7
v 207 9
v 208 12
v 209 4
v 210 14
v 211 0
v 212 14
v 213 4
v 214 9
v 215 0
v 216 4
v 217 5
v 218 9
v 219 13
v 220 17
v 221 3
v 222 0
v 223 5
v 224 16
v 225 10
v 226 3
v 227 5
v 228 9
v 229 6
v 230 14
v 231 6
v 232 1
v 233 12
v 234 9
v 235 6
v 236 9
v 237 16
v 238 9
v 239 14
v 240 3
v 241 2
v 242 0
v 243 15
v 244 1
v 245 13
v 246 15
v 247 16
v 248 8
v 249 10
v 250 0
v 251 9
v 252 3
v 253 8
v 254 12
v 255 1
v 256 17
v 257 9
v 258 10
v 259 5
v 260 1
v 261 8
v 262 12
v 263 15
v 264 0
v 265 12
v 266 7
v 267 16
v 268 0
v 269 1
v 270 11
v 271 6
v 272 15
v 273 17
v 274 4
v 275 0
v 276 9
v 277 10
v 278 5
v 279 5
v 280 8
v 281 11
v 282 7
v 283 1
v 284 15
v 285 13
v 286 7
v 287 8
v 288 0
v 289 15
v 290 11
v 291 5
v 292 10
v 293 0
v 294 9
v 295 1
v 296 1
v 297 2
v 298 4
v 299 11
v 300 14
v 301 9
v 302 12
v 303 11
v 304 2
v 305 5
v 306 16
v 307 6
v 308 4
v 309 14
v 310 1
v 311 16
v 312 16
v 313 0
v 314 0
v 315 3
v 316 8
v 317 6
v 318 4
v 319 8
v 320 5
v 321 11
v 322 9
v 323 4
v 324 8
v 325 4
v 326 3
v 327 15
v 328 1
v 329 1
v 330 13
v 331 12
v 332 7
v 333 11
v 334 0
v 335 12
v 336 11
v 337 3
v 338 6
v 339 3
v 340 5
v 341 16
v 342 10
v 343 1
v 344 0
v 345 5
v 346 13
v 347 13
v 348 10
v 349 0
v 350 10
v 351 4
v 352 9
v 353 11
v 354 10
v 355 4
v 356 10
v 357 0
v 358 10
v 359 17
v 360 7
v 361 12
v 362 10
v 363 5
v 364 5
v 365 9
v 366 4
v 367 7
v 368 6
v 369 5
v 370 2
v 371 11
v 372 2
v 373 10
v 374 6
v 375 10
v 376 2
v 377 8
v 378 10
v 379 12
v 380 4
v 381 2
v 382 5
v 383 13
v 384 14
v 385 15
v 386 5
v 387 9
v 388 3
v 389 12
v 390 13
v 391 17
v 392 8
v 393 3
v 394 1
v 395 7
v 396 16
v 397 17
v 398 13
v 399 11
v 400 2
v 401 3
v 402 17
v 403 8
v 404 11
v 405 13
v 406 2
v 407 15
v 408 4
v 409 0
v 410 1
v 411 3
v 412 9
v 413 13
v 414 14
v 415 0
v 416 10
v 417 13
v 418 4
v 419 11
v 420 3
v 421 9
v 422 1
v 423 10
v 424 6
v 425 3
v 426 9
v 427 13
v 428 6
v 429 16
v 430 0
v 431 12
v 432 0
v 433 7
v 434 3
v 435 6
v 436 5
v 437 16
v 438 15
v 439 10
v 440 7
v 441 0
v 442 12
v 443 7
v 444 6
v 445 7
v 446 1
v 447 6
v 448 8
v 449 5
v 450 8
v 451 2
v 452 13
v 453 7
v 454 1
v 455 14
v 456 13
v 457 6
v 458 15
v 459 0
v 460 8
v 461 14
v 462 9
v 463 7
v 464 8
v 465 17
v 466 1
v 467 8
v 468 6
v 469 14
v 470 13
v 471 12
v 472 4
v 473 3
v 474 1
v 475 7
v 476 15
v 477 3
v 478 9
v 479 4
v 480 7
v 481 17
v 482 2
v 483 15
v 484 11
v 485 7
v 486 14
v 487 1
v 488 6
v 489 3
v 490 17
v 491 5
v 492 4
v 493 8
v 494 8
v 495 11
v 496 9
v 497 13
v 498 4
v 499 10
v 500 2
